(declare-const A Int)
(declare-const C Int)
(declare-const T Int)
(declare-const S Int)
(declare-const O Int)
(declare-const N Int)
(declare-const P Int)
(declare-const D Int)
(declare-const R Int)
(declare-const I Int)
(declare-const G Int)
(declare-const E Int)

(assert
    (and
        (and (>= A 1) (<= A 3))
        (and (>= C 1) (<= C 3))
        (and (>= T 1) (<= T 3))
        (and (>= S 1) (<= S 3))
        (and (>= O 1) (<= O 3))
        (and (>= N 1) (<= N 3))
        (and (>= P 1) (<= P 3))
        (and (>= D 1) (<= D 3))
        (and (>= R 1) (<= R 3))
        (and (>= I 1) (<= I 3))
        (and (>= G 1) (<= G 3))
        (and (>= E 1) (<= E 3))

        ; this is to ensure that every die has exactly 4 sides
        (=(+ A C T S O N P D R I G E) (+ (* 4 1)(* 4 2)(* 4 3)))

        (distinct C A T)
        (distinct S O N)
        (distinct P O D)
        (distinct R I G)
        (distinct P E G)
        (distinct T A P)
        (distinct D I N)
        (distinct A P E)
    )
)

(check-sat)
(get-model)
(exit)